45
1 0 22
2 0 18
2 1 12
3 0 35
3 1 30
3 2 49
4 0 19
4 1 15
4 2 35
4 3 32
5 0 3
5 1 34
5 2 33
5 3 50
5 4 15
6 0 19
6 1 45
6 2 4
6 3 12
6 4 25
6 5 5
7 0 28
7 1 20
7 2 30
7 3 36
7 4 6
7 5 46
7 6 3
8 0 9
8 1 31
8 2 11
8 3 2
8 4 10
8 5 17
8 6 45
8 7 2
9 0 28
9 1 17
9 2 17
9 3 41
9 4 7
9 5 44
9 6 4
9 7 1
9 8 17
10 0 22
10 1 40
10 2 33
10 3 5
10 4 28
10 5 32
10 6 43
10 7 47
10 8 37
10 9 14
11 0 40
11 1 1
11 2 9
11 3 42
11 4 4
11 5 44
11 6 44
11 7 25
11 8 7
11 9 28
11 10 25
12 0 31
12 1 10
12 2 18
12 3 4
12 4 23
12 5 42
12 6 44
12 7 19
12 8 3
12 9 12
12 10 38
12 11 20
13 0 37
13 1 47
13 2 6
13 3 31
13 4 14
13 5 12
13 6 3
13 7 35
13 8 37
13 9 35
13 10 26
13 11 45
13 12 25
14 0 37
14 1 44
14 2 13
14 3 50
14 4 37
14 5 7
14 6 26
14 7 15
14 8 26
14 9 38
14 10 11
14 11 15
14 12 47
14 13 7
15 0 13
15 1 12
15 2 5
15 3 44
15 4 20
15 5 4
15 6 14
15 7 36
15 8 43
15 9 30
15 10 31
15 11 4
15 12 11
15 13 23
15 14 15
16 0 33
16 1 34
16 2 22
16 3 23
16 4 16
16 5 38
16 6 34
16 7 26
16 8 25
16 9 11
16 10 41
16 11 9
16 12 20
16 13 3
16 14 1
16 15 27
17 0 13
17 1 27
17 2 17
17 3 10
17 4 7
17 5 32
17 6 11
17 7 1
17 8 46
17 9 28
17 10 43
17 11 47
17 12 42
17 13 50
17 14 26
17 15 19
17 16 15
18 0 21
18 1 23
18 2 31
18 3 10
18 4 28
18 5 43
18 6 25
18 7 37
18 8 32
18 9 37
18 10 19
18 11 25
18 12 25
18 13 1
18 14 43
18 15 16
18 16 13
18 17 7
19 0 10
19 1 12
19 2 5
19 3 40
19 4 44
19 5 33
19 6 43
19 7 39
19 8 11
19 9 2
19 10 45
19 11 2
19 12 37
19 13 20
19 14 34
19 15 13
19 16 35
19 17 2
19 18 14
20 0 42
20 1 12
20 2 15
20 3 15
20 4 46
20 5 24
20 6 22
20 7 7
20 8 31
20 9 13
20 10 39
20 11 36
20 12 9
20 13 47
20 14 37
20 15 41
20 16 10
20 17 13
20 18 21
20 19 47
21 0 14
21 1 33
21 2 48
21 3 1
21 4 44
21 5 13
21 6 32
21 7 37
21 8 3
21 9 23
21 10 29
21 11 5
21 12 27
21 13 46
21 14 20
21 15 13
21 16 8
21 17 7
21 18 24
21 19 21
21 20 32
22 0 13
22 1 11
22 2 29
22 3 16
22 4 33
22 5 35
22 6 47
22 7 15
22 8 13
22 9 47
22 10 3
22 11 1
22 12 45
22 13 50
22 14 46
22 15 16
22 16 6
22 17 5
22 18 46
22 19 17
22 20 4
22 21 19
23 0 47
23 1 10
23 2 29
23 3 47
23 4 19
23 5 47
23 6 24
23 7 20
23 8 38
23 9 7
23 10 36
23 11 44
23 12 1
23 13 25
23 14 1
23 15 18
23 16 44
23 17 4
23 18 43
23 19 41
23 20 44
23 21 8
23 22 6
24 0 22
24 1 38
24 2 30
24 3 49
24 4 45
24 5 29
24 6 20
24 7 17
24 8 27
24 9 27
24 10 49
24 11 13
24 12 46
24 13 17
24 14 1
24 15 14
24 16 6
24 17 40
24 18 3
24 19 4
24 20 20
24 21 46
24 22 18
24 23 22
25 0 40
25 1 28
25 2 17
25 3 7
25 4 11
25 5 24
25 6 48
25 7 11
25 8 2
25 9 19
25 10 37
25 11 2
25 12 43
25 13 19
25 14 6
25 15 37
25 16 14
25 17 37
25 18 34
25 19 4
25 20 15
25 21 46
25 22 2
25 23 3
25 24 19
26 0 24
26 1 42
26 2 20
26 3 24
26 4 50
26 5 45
26 6 4
26 7 31
26 8 25
26 9 14
26 10 18
26 11 25
26 12 30
26 13 21
26 14 45
26 15 36
26 16 30
26 17 3
26 18 15
26 19 8
26 20 20
26 21 27
26 22 35
26 23 34
26 24 27
26 25 17
27 0 25
27 1 24
27 2 6
27 3 16
27 4 14
27 5 23
27 6 10
27 7 6
27 8 31
27 9 23
27 10 48
27 11 5
27 12 7
27 13 24
27 14 48
27 15 10
27 16 9
27 17 42
27 18 37
27 19 1
27 20 46
27 21 11
27 22 11
27 23 44
27 24 31
27 25 1
27 26 13
28 0 26
28 1 35
28 2 13
28 3 14
28 4 47
28 5 20
28 6 5
28 7 14
28 8 18
28 9 27
28 10 35
28 11 1
28 12 17
28 13 31
28 14 3
28 15 34
28 16 32
28 17 45
28 18 47
28 19 7
28 20 8
28 21 39
28 22 47
28 23 20
28 24 13
28 25 11
28 26 35
28 27 16
29 0 11
29 1 49
29 2 15
29 3 18
29 4 22
29 5 20
29 6 34
29 7 40
29 8 2
29 9 14
29 10 31
29 11 12
29 12 31
29 13 33
29 14 15
29 15 38
29 16 24
29 17 23
29 18 49
29 19 17
29 20 25
29 21 48
29 22 47
29 23 16
29 24 31
29 25 1
29 26 35
29 27 6
29 28 21
30 0 1
30 1 25
30 2 16
30 3 19
30 4 28
30 5 11
30 6 48
30 7 40
30 8 43
30 9 21
30 10 31
30 11 20
30 12 20
30 13 50
30 14 28
30 15 5
30 16 41
30 17 44
30 18 12
30 19 30
30 20 24
30 21 30
30 22 28
30 23 33
30 24 19
30 25 29
30 26 2
30 27 5
30 28 28
30 29 40
31 0 35
31 1 8
31 2 5
31 3 35
31 4 8
31 5 34
31 6 46
31 7 49
31 8 18
31 9 49
31 10 32
31 11 16
31 12 2
31 13 35
31 14 47
31 15 16
31 16 32
31 17 2
31 18 43
31 19 7
31 20 17
31 21 32
31 22 24
31 23 29
31 24 31
31 25 36
31 26 38
31 27 37
31 28 10
31 29 41
31 30 8
32 0 21
32 1 19
32 2 10
32 3 40
32 4 42
32 5 22
32 6 1
32 7 7
32 8 18
32 9 4
32 10 36
32 11 50
32 12 20
32 13 18
32 14 8
32 15 8
32 16 25
32 17 40
32 18 26
32 19 12
32 20 30
32 21 11
32 22 47
32 23 45
32 24 28
32 25 29
32 26 29
32 27 25
32 28 33
32 29 12
32 30 21
32 31 30
33 0 42
33 1 48
33 2 46
33 3 16
33 4 26
33 5 33
33 6 31
33 7 50
33 8 27
33 9 50
33 10 48
33 11 1
33 12 19
33 13 50
33 14 11
33 15 25
33 16 46
33 17 30
33 18 10
33 19 19
33 20 8
33 21 21
33 22 49
33 23 46
33 24 42
33 25 20
33 26 4
33 27 47
33 28 37
33 29 18
33 30 26
33 31 4
33 32 9
34 0 48
34 1 7
34 2 38
34 3 7
34 4 13
34 5 32
34 6 7
34 7 29
34 8 24
34 9 19
34 10 38
34 11 22
34 12 33
34 13 6
34 14 44
34 15 2
34 16 42
34 17 45
34 18 33
34 19 41
34 20 4
34 21 2
34 22 33
34 23 48
34 24 8
34 25 33
34 26 23
34 27 4
34 28 27
34 29 23
34 30 10
34 31 49
34 32 40
34 33 32
35 0 18
35 1 21
35 2 43
35 3 43
35 4 9
35 5 9
35 6 29
35 7 6
35 8 23
35 9 40
35 10 24
35 11 34
35 12 34
35 13 7
35 14 39
35 15 15
35 16 34
35 17 13
35 18 5
35 19 38
35 20 14
35 21 21
35 22 9
35 23 1
35 24 32
35 25 8
35 26 43
35 27 46
35 28 10
35 29 44
35 30 44
35 31 44
35 32 32
35 33 12
35 34 19
36 0 13
36 1 47
36 2 14
36 3 9
36 4 18
36 5 32
36 6 19
36 7 9
36 8 43
36 9 1
36 10 45
36 11 16
36 12 30
36 13 20
36 14 31
36 15 10
36 16 47
36 17 13
36 18 15
36 19 10
36 20 42
36 21 24
36 22 28
36 23 26
36 24 27
36 25 5
36 26 14
36 27 42
36 28 33
36 29 25
36 30 5
36 31 8
36 32 40
36 33 25
36 34 40
36 35 8
37 0 4
37 1 15
37 2 26
37 3 13
37 4 21
37 5 42
37 6 4
37 7 7
37 8 5
37 9 13
37 10 1
37 11 10
37 12 2
37 13 19
37 14 48
37 15 24
37 16 13
37 17 25
37 18 27
37 19 4
37 20 33
37 21 43
37 22 50
37 23 34
37 24 40
37 25 23
37 26 46
37 27 12
37 28 47
37 29 24
37 30 8
37 31 24
37 32 32
37 33 2
37 34 29
37 35 6
37 36 34
38 0 7
38 1 12
38 2 40
38 3 48
38 4 17
38 5 16
38 6 3
38 7 1
38 8 3
38 9 31
38 10 2
38 11 36
38 12 48
38 13 35
38 14 27
38 15 47
38 16 25
38 17 46
38 18 45
38 19 34
38 20 37
38 21 34
38 22 18
38 23 22
38 24 4
38 25 4
38 26 23
38 27 21
38 28 12
38 29 31
38 30 10
38 31 1
38 32 4
38 33 14
38 34 50
38 35 41
38 36 28
38 37 36
39 0 7
39 1 39
39 2 19
39 3 5
39 4 37
39 5 28
39 6 44
39 7 35
39 8 30
39 9 47
39 10 16
39 11 32
39 12 30
39 13 4
39 14 23
39 15 48
39 16 12
39 17 44
39 18 13
39 19 8
39 20 43
39 21 30
39 22 10
39 23 2
39 24 10
39 25 33
39 26 4
39 27 9
39 28 31
39 29 22
39 30 40
39 31 22
39 32 14
39 33 2
39 34 13
39 35 21
39 36 25
39 37 31
39 38 20
40 0 44
40 1 37
40 2 45
40 3 50
40 4 10
40 5 39
40 6 34
40 7 40
40 8 38
40 9 34
40 10 21
40 11 1
40 12 25
40 13 49
40 14 31
40 15 17
40 16 12
40 17 7
40 18 13
40 19 6
40 20 31
40 21 50
40 22 17
40 23 3
40 24 18
40 25 1
40 26 39
40 27 34
40 28 25
40 29 20
40 30 47
40 31 36
40 32 42
40 33 18
40 34 18
40 35 40
40 36 31
40 37 18
40 38 38
40 39 7
41 0 1
41 1 35
41 2 19
41 3 17
41 4 22
41 5 49
41 6 2
41 7 14
41 8 14
41 9 33
41 10 29
41 11 40
41 12 33
41 13 50
41 14 24
41 15 31
41 16 34
41 17 34
41 18 5
41 19 40
41 20 39
41 21 43
41 22 23
41 23 21
41 24 14
41 25 2
41 26 36
41 27 34
41 28 32
41 29 22
41 30 44
41 31 10
41 32 19
41 33 36
41 34 47
41 35 27
41 36 11
41 37 44
41 38 3
41 39 2
41 40 27
42 0 50
42 1 8
42 2 23
42 3 18
42 4 9
42 5 49
42 6 11
42 7 31
42 8 30
42 9 35
42 10 3
42 11 43
42 12 42
42 13 28
42 14 28
42 15 23
42 16 27
42 17 2
42 18 22
42 19 16
42 20 18
42 21 28
42 22 12
42 23 39
42 24 38
42 25 41
42 26 16
42 27 26
42 28 40
42 29 11
42 30 12
42 31 20
42 32 15
42 33 48
42 34 22
42 35 26
42 36 48
42 37 31
42 38 7
42 39 49
42 40 11
42 41 33
43 0 23
43 1 12
43 2 44
43 3 43
43 4 40
43 5 49
43 6 6
43 7 31
43 8 49
43 9 39
43 10 47
43 11 43
43 12 9
43 13 3
43 14 26
43 15 43
43 16 47
43 17 11
43 18 4
43 19 4
43 20 9
43 21 42
43 22 34
43 23 50
43 24 8
43 25 10
43 26 41
43 27 33
43 28 25
43 29 44
43 30 13
43 31 2
43 32 30
43 33 44
43 34 21
43 35 37
43 36 30
43 37 20
43 38 28
43 39 30
43 40 17
43 41 40
43 42 27
44 0 5
44 1 39
44 2 40
44 3 28
44 4 37
44 5 19
44 6 4
44 7 21
44 8 40
44 9 50
44 10 6
44 11 21
44 12 2
44 13 17
44 14 25
44 15 20
44 16 20
44 17 11
44 18 21
44 19 48
44 20 27
44 21 44
44 22 44
44 23 39
44 24 6
44 25 20
44 26 42
44 27 23
44 28 39
44 29 44
44 30 21
44 31 18
44 32 23
44 33 37
44 34 37
44 35 24
44 36 30
44 37 25
44 38 13
44 39 8
44 40 44
44 41 45
44 42 23
44 43 7
